# LAMMPS input script for AFM System Initialization and Indentation

clear
units           metal
atom_style      {{ atom_style }}
boundary        p p p

neighbor        {{ neighbor_list }} bin
{{ neigh_modify_command }}

comm_style tiled
region          box block {{ xlo }} {{ xhi }} {{ ylo }} {{ yhi }} -5 {{ zhi_box }}
create_box      {{ ngroups }} box

read_data       {{ sub_file }} add append group sub
read_data       {{ tip_file }} add append shift {{ tip_x }} {{ tip_y }} {{ tip_z }} group tip offset {{ sub_natypes }} 0 0 0 0
read_data       {{ sheet_file }} add append shift {{ sheet_shift_x }} {{ sheet_shift_y }} {{ sheet_z }} group 2D offset {{ offset_2d }} 0 0 0 0
{% if flake_enabled %}
read_data       {{ flake_file }} add append shift {{ flake_shift_x }} {{ flake_shift_y }} {{ flake_z }} group flake offset {{ offset_flake }} 0 0 0 0
{% endif %}

include         {{ potential_file }}

balance         1.0 rcb

{% if dump_enabled %}
dump            sys all atom {{ dump_freq }} {{ dump_file }}
{% endif %}

min_style       {{ min_style }}
{{ minimization_command }}

{% if finite_sheet_enabled and finite_sheet_edge_mode == 'spring' %}
group           sheet_edge intersect 2D 2D_edge
fix             fs_edge sheet_edge spring/self {{ finite_sheet_edge_spring_k }} xy
{% endif %}

timestep        {{ timestep }}
thermo          {{ thermo }}

group           fixset union sub_fix {{ tip_fix_group }}
group           system subtract all fixset

velocity        system create {{ temp }} {{ range(1, 999999) | random }}
velocity        2D zero angular

{% if thermostat_type == 'langevin' %}
compute         temp_tip tip_thermo temp/partial 0 1 0
fix             lang_tip tip_thermo langevin {{ temp }} {{ temp }} $(100.0*dt) {{ range(1, 999999) | random }} zero yes
fix_modify      lang_tip temp temp_tip

compute         temp_sub sub_thermo temp/partial 0 1 0
fix             lang_sub sub_thermo langevin {{ temp }} {{ temp }} $(100.0*dt) {{ range(1, 999999) | random }} zero yes
fix_modify      lang_sub temp temp_sub

group           nve_apply subtract all sub_fix {{ tip_fix_group }}
fix             nve_all nve_apply nve
{% else %}
fix             nvt_sys system nvt temp {{ temp }} {{ temp }} $(100.0*dt)
{% endif %}

fix             sub_fix sub_fix setforce 0.0 0.0 0.0
velocity        sub_fix set 0.0 0.0 0.0

{% if flake_enabled %}
# Hold the flake's corner atoms laterally so it keeps its shape while the tip
# indents it. The xy keyword leaves the corners free to move in z (the tip
# presses the flake down). This restraint exists only in the indentation
# script; the sliding script reads the load state without it, so the flake is
# free during friction measurement.
group           flake_corner type {{ flake_corner_types }}
fix             corner_hold flake_corner spring/self {{ flake_corner_k }} xy
{% endif %}

fix             tip_f {{ tip_fix_group }} rigid/nve single force * off off off torque * off off off
run             10000
unfix           tip_f

displace_atoms  tip_all move 0.0 0.0 -20.0 units box

fix             tip_f {{ tip_fix_group }} rigid/nve single force * off off on torque * off off off
variable        f equal 0.0

{% if forces is iterable and forces is not string %}
variable        find index {{ forces | join(' ') }}
label           force_loop
{% else %}
variable        force equal {{ forces }}
variable        find equal v_force
{% endif %}

balance         1.0 rcb

variable        num_floads equal 100
variable        r equal 0.0
variable        fincr equal (${find}-${f})/${num_floads}

variable        i loop ${num_floads}
label           loop_load

variable        f equal ${f}+${fincr}
variable        n equal -v_f/(count({{ tip_fix_group }})*{{ ev_a_to_nn }})
fix             forcetip {{ tip_fix_group }} aveforce 0.0 0.0 $n
run             100
unfix           forcetip

next            i
jump            SELF loop_load

fix             forcetip {{ tip_fix_group }} aveforce 0.0 0.0 $n
variable        dispz equal xcm(tip_all,z)
run             100 pre yes post no

label           check_r
variable        disp_l equal ${dispz}
variable        disp_h equal ${dispz}
variable        disploop loop 50

label           disp
run             100 pre no post no
if              '${dispz}>${disp_h}' then 'variable disp_h equal ${dispz}'
if              '${dispz}<${disp_l}' then 'variable disp_l equal ${dispz}'
next            disploop
jump            SELF disp

variable        r equal ${disp_h}-${disp_l}
if              '${r} < 0.1' then 'jump SELF loop_end' else 'jump SELF check_r'

label           loop_end
write_data      {{ output_dir }}/load_$(v_find)N.data

{% if forces is iterable and forces is not string %}
next            find
jump            SELF force_loop
{% endif %}